Version identifier: 20.1.0.0 | 2020-11-10 | 9bedb6d68
CPXPARAM_Threads                                 1
CPXPARAM_TimeLimit                               100
Generic callback                                 0xfe
Tried aggregator 2 times.
MIP Presolve eliminated 4 rows and 8 columns.
MIP Presolve modified 4 coefficients.
Aggregator did 1 substitutions.
Reduced MIP has 117 rows, 778 columns, and 2212 nonzeros.
Reduced MIP has 777 binaries, 0 generals, 0 SOSs, and 0 indicators.
Presolve time = 0.00 sec. (1.53 ticks)
Probing time = 0.00 sec. (1.19 ticks)
Tried aggregator 1 time.
Reduced MIP has 117 rows, 778 columns, and 2212 nonzeros.
Reduced MIP has 777 binaries, 0 generals, 0 SOSs, and 0 indicators.
Presolve time = 0.00 sec. (0.80 ticks)
Probing time = 0.00 sec. (1.19 ticks)
Clique table members: 797.
MIP emphasis: balance optimality and feasibility.
MIP search method: dynamic search.
Parallel mode: none, using 1 thread.
Root relaxation solution time = 0.00 sec. (0.36 ticks)

        Nodes                                         Cuts/
   Node  Left     Objective  IInf  Best Integer    Best Bound    ItCnt     Gap

      0     0    18436.0000    14                      0.0000        3         
      0     2    18764.0627    28                  18827.5804        3         
Elapsed time = 1.15 sec. (28.19 ticks, tree = 0.01 MB, solutions = 0)
*    10+   10                        28910.7800    19096.6077            33.95%
*   120+    5                        23914.2300    21633.6986             9.54%
    140     9    23178.2233     6    23914.2300    22993.4600     1274    3.85%

User cuts applied:  119

Root node processing (before b&c):
  Real time             =    1.15 sec. (28.37 ticks)
Sequential b&c:
  Real time             =    0.42 sec. (267.15 ticks)
                          ------------
Total (root+branch&cut) =    1.57 sec. (295.52 ticks)
SOLUTION ADMISSIBLE TROUVEE 28910.78 28910.78 170.0 186.0
SOLUTION ADMISSIBLE TROUVEE 23914.230000000003 23914.23 183.0 186.0
